data;

param w := 15;
param n := 25;
param min_h := 40;
param max_h := 56;

set BLOCKS := 1 2 3 4 5 6 7 8 9 10 11 12 13 14 15 16 17 18 19 20 21 22 23 24 25 ;

param:	width	height :=
	1	5	13
	2	4	13
	3	4	12
	4	4	11
	5	3	13
	6	3	11
	7	3	11
	8	3	9
	9	2	13
	10	4	6
	11	2	12
	12	2	11
	13	2	11
	14	3	7
	15	4	5
	16	2	9
	17	5	3
	18	5	3
	19	2	7
	20	2	6
	21	2	5
	22	3	2
	23	2	2
	24	4	1
	25	2	1;